32	4
10	10	10	10
0	0	0	0	0	2	2	30
1	5	4	10	7	2	3	8
6	10	6	10	10	1	4
2	10	6	10	10	2	5	14
3	5	5	9	10	1	6
3	5	4	9	7	1	7
3	5	3	9	7	1	9
9	0	4	0	0	2	9	10
3	10	8	10	10	2	11	12
10	0	2	0	0	1	11
2	5	7	9	10	2	13	15
5	2	3	1	0	1	32
10	7	5	4	0	3	16	21	26
5	5	3	1	0	1	32
10	3	4	6	10	5	16	17	20	21	26
4	2	3	7	2	2	18	19
8	0	2	2	2	1	32
10	5	0	6	2	2	22	23
10	2	5	1	6	2	22	23
4	3	0	3	4	1	32
6	5	3	0	4	1	32
8	0	3	5	3	2	27	29
8	5	5	5	7	4	24	25	27	29
5	2	6	4	4	1	31
5	4	4	4	7	1	28
5	4	4	0	4	1	32
10	6	0	6	3	1	28
7	4	2	6	5	1	31
4	4	8	2	4	1	31
1	5	6	0	3	1	32
2	3	5	4	2	1	32
0	0	0	0	0	0
